p tw 94 99
1 2
2 13
3 93
4 5
5 6
6 7
7 8
8 9
9 10
10 11
11 12
12 14
13 24
14 15
15 16
16 17
17 18
18 19
19 20
20 21
21 22
22 23
23 25
24 35
25 26
26 27
27 28
28 29
29 30
29 91
30 31
31 32
32 33
33 34
34 36
35 46
36 37
36 39
37 38
38 41
39 40
40 41
41 42
42 43
43 44
44 45
45 47
46 57
47 48
48 49
49 50
50 51
50 63
51 52
52 53
53 54
54 55
55 56
56 58
57 68
58 59
59 60
60 61
61 62
62 81
63 64
64 65
65 66
66 67
67 69
68 79
69 70
70 71
71 72
72 73
72 74
73 74
74 75
75 76
76 77
77 78
78 80
79 90
80 81
81 82
82 83
83 84
83 85
84 85
85 86
86 87
87 88
88 89
89 26
90 3
90 4
91 92
92 93
93 94
